p cnf 270 1158
38 -35 -1 18 19 0
-10 -3 -26 -21 -32 0
22 -24 -49 21 8 0
-48 -44 33 18 46 0
40 19 -49 -48 -11 0
-11 -50 -8 32 -43 0
-11 -22 -35 44 48 0
-39 -18 29 1 30 0
-4 -15 8 2 -6 0
38 23 -18 -20 -27 0
30 -17 -41 -50 5 0
50 19 -27 -7 -38 0
39 -50 25 24 44 0
9 33 40 -32 -49 0
-15 21 -14 48 42 0
17 10 13 48 -43 0
41 44 -38 -24 30 0
-8 49 7 9 -42 0
-23 42 24 -38 43 0
-24 -9 7 44 -16 0
-31 -7 -8 -50 -34 0
-6 -9 1 25 28 0
-15 26 45 -5 -32 0
-8 47 33 38 20 0
-14 10 -1 -40 -39 0
-6 19 36 -31 3 0
41 13 32 1 -2 0
-28 11 -8 -48 26 0
-3 -12 -42 -6 -17 0
-9 -15 48 -50 32 0
41 24 -19 18 12 0
-49 38 31 41 44 0
25 49 24 15 -29 0
49 26 36 2 -6 0
19 22 17 -32 2 0
-30 -3 -15 -16 18 0
24 44 -32 19 37 0
-46 -35 26 -44 -22 0
9 -26 50 -10 -21 0
-16 -23 -35 -42 -3 0
-15 4 -42 -20 19 0
-32 31 -23 27 9 0
-30 9 -2 -8 -15 0
-35 -25 28 15 2 0
-3 10 -14 49 16 0
42 -18 43 -12 -37 0
24 43 -13 -30 34 0
31 3 -8 7 47 0
28 45 14 46 -5 0
38 -23 -39 -25 -22 0
5 -36 27 32 -31 0
15 -11 3 -18 -20 0
35 -2 -43 12 46 0
-13 26 50 -47 31 0
-4 -26 31 2 -3 0
-12 -32 24 -40 -9 0
30 -41 2 -42 6 0
-33 -40 -9 5 -28 0
-42 7 -21 19 -41 0
-21 -29 -27 4 48 0
46 50 34 38 10 0
18 23 -17 -46 -48 0
-33 -37 48 -13 32 0
40 -49 -3 42 -34 0
-37 -28 -21 -48 -32 0
3 -39 -16 30 -9 0
-16 -21 -32 19 -34 0
37 -20 48 35 -4 0
3 36 -45 5 17 0
23 15 -6 -30 -18 0
-36 15 37 -33 -4 0
25 17 -50 -3 30 0
-28 -47 -15 -23 -48 0
-25 50 34 8 46 0
10 -39 24 -14 49 0
12 -49 36 14 -25 0
-19 -35 -15 30 -2 0
10 -40 3 -44 36 0
20 39 -48 -2 37 0
-14 4 46 44 -6 0
-46 -19 -3 -2 44 0
33 -26 -35 -31 30 0
-49 7 16 28 -36 0
-11 -35 3 -26 29 0
-46 -27 39 -32 -16 0
-1 -41 -31 19 -6 0
-3 43 -20 9 15 0
-23 -33 -42 40 10 0
11 -33 -22 31 3 0
20 32 43 28 -27 0
-14 3 -11 -22 -26 0
-1 -17 15 -19 -33 0
6 30 -36 -16 28 0
-8 32 23 3 38 0
-1 -17 38 13 -4 0
-34 13 24 21 -36 0
-6 48 13 14 47 0
-25 17 48 -38 22 0
-40 -44 37 7 -41 0
-47 36 48 3 21 0
-18 5 -34 41 50 0
28 22 -3 -16 39 0
50 13 30 7 -35 0
-41 -5 23 -14 -30 0
-40 23 21 33 46 0
-19 48 -31 17 21 0
-50 -38 14 -9 43 0
-40 -33 -3 46 -9 0
32 -33 5 36 -30 0
-45 8 -36 6 5 0
8 1 49 -12 -14 0
-11 24 8 49 -40 0
4 20 -6 -24 41 0
29 -11 32 8 39 0
-24 -19 -34 37 -48 0
36 29 -4 -41 16 0
-22 -17 1 -18 41 0
-47 27 36 -48 33 0
11 -32 -30 22 14 0
9 -12 -7 -10 -14 0
-46 11 14 21 -40 0
23 -9 24 20 -31 0
-27 15 -19 -41 49 0
31 9 33 -18 -15 0
28 33 26 -11 22 0
-50 32 36 -44 8 0
44 45 38 22 -3 0
-49 45 -32 -1 5 0
30 49 40 33 16 0
33 42 -22 -14 38 0
-1 41 -25 22 9 0
10 -13 -5 -26 28 0
-28 7 1 -40 3 0
-44 -24 -5 -28 33 0
-45 -9 -39 -1 34 0
28 48 29 -47 -21 0
49 -29 -18 1 19 0
14 12 21 33 22 0
43 33 22 37 15 0
41 -27 14 -5 4 0
22 32 -45 39 -4 0
-2 -45 49 4 -12 0
20 -33 -10 -17 -2 0
-49 -37 -36 20 7 0
-6 33 -5 -28 -49 0
-37 48 -30 -36 -22 0
-1 26 34 -9 -18 0
22 -45 -1 40 36 0
-40 29 -28 21 46 0
-11 -3 21 -47 18 0
-20 39 35 -47 32 0
-47 -34 -16 30 -14 0
-40 30 23 -49 10 0
-35 -47 16 -2 49 0
47 -9 20 -41 14 0
7 -27 -10 -47 46 0
30 -14 -4 28 42 0
-34 -37 -45 22 -33 0
38 34 -29 45 -46 0
-1 30 9 -43 22 0
8 -50 -27 -12 -23 0
-19 -17 -21 -30 -18 0
22 39 6 28 -43 0
15 40 33 37 -46 0
20 -43 23 9 -6 0
5 -10 -24 15 -49 0
31 -29 -8 -14 -38 0
-48 30 11 25 -50 0
-20 30 48 -50 -49 0
9 1 47 -25 18 0
43 26 -37 -10 -50 0
36 31 9 33 32 0
29 42 -4 5 -9 0
40 -32 28 26 -21 0
-21 34 28 -15 24 0
-27 28 1 -8 33 0
12 -9 17 6 -35 0
5 34 21 -23 -49 0
-27 44 -33 26 -47 0
-39 -47 12 21 -18 0
10 -7 44 12 3 0
18 -43 -23 -39 33 0
6 8 21 -17 45 0
23 26 4 44 14 0
35 7 26 25 -44 0
-1 -47 -22 36 9 0
38 28 -32 37 39 0
-44 -39 -15 -18 -48 0
-26 -36 50 41 -20 0
-43 -24 -10 -29 26 0
-31 -37 27 -28 2 0
-49 31 28 18 27 0
37 27 -45 49 -33 0
31 29 -22 -3 36 0
-29 12 -11 -41 -24 0
50 -24 -31 48 35 0
-8 43 27 -15 29 0
-44 -33 -7 -3 21 0
15 -40 9 27 18 0
6 41 -2 50 22 0
24 -14 -35 5 21 0
31 17 -43 -2 26 0
46 -15 -22 -45 14 0
44 47 31 11 8 0
-6 1 -18 -39 29 0
-27 29 -5 -4 24 0
-35 29 7 1 -16 0
-27 -13 -38 46 -49 0
13 21 5 -18 25 0
2 -35 43 -29 4 0
22 -41 -14 7 10 0
19 -3 -29 -11 6 0
-26 50 -31 -15 -45 0
20 19 -12 -48 43 0
-25 -24 -48 -14 -49 0
38 15 14 10 25 0
-18 -8 49 41 -4 0
-31 -40 -50 15 -42 0
-25 26 45 -36 18 0
-45 -19 13 4 -44 0
-48 46 -17 -36 -2 0
-11 47 -33 43 -16 0
9 -37 -19 -33 45 0
-32 9 27 45 34 0
27 -50 -34 -49 10 0
27 3 19 47 5 0
-42 17 32 -43 13 0
19 -26 5 24 -23 0
27 -18 -1 -12 -13 0
46 8 16 -50 -17 0
-35 -8 -45 -50 29 0
6 -31 9 17 -49 0
18 -44 -48 13 -7 0
-10 -11 -40 -37 17 0
-28 -35 -42 24 -41 0
17 16 43 -47 -4 0
20 8 -32 -2 24 0
-11 37 -43 -42 34 0
-14 -24 -5 7 -17 0
-25 44 28 -5 21 0
-18 34 6 25 -15 0
-23 36 38 24 -11 0
-2 26 -22 -4 48 0
-34 12 -7 46 -45 0
-49 2 -26 -31 16 0
26 -16 45 5 9 0
-46 -38 -37 -4 1 0
-50 49 -17 -10 47 0
12 -31 23 10 6 0
-1 16 -38 -46 -45 0
-1 -4 51 0
1 -4 -51 0
-1 4 -51 0
1 4 51 0
-6 7 52 0
6 7 -52 0
-6 -7 -52 0
6 -7 52 0
-9 10 53 0
9 10 -53 0
-9 -10 -53 0
9 -10 53 0
-13 -15 54 0
13 -15 -54 0
-13 15 -54 0
13 15 54 0
16 -17 55 0
-16 -17 -55 0
16 17 -55 0
-16 17 55 0
19 -21 56 0
-19 -21 -56 0
19 21 -56 0
-19 21 56 0
22 -24 57 0
-22 -24 -57 0
22 24 -57 0
-22 24 57 0
-25 26 58 0
25 26 -58 0
-25 -26 -58 0
25 -26 58 0
27 28 59 0
-27 28 -59 0
27 -28 -59 0
-27 -28 59 0
31 -32 60 0
-31 -32 -60 0
31 32 -60 0
-31 32 60 0
33 35 61 0
-33 35 -61 0
33 -35 -61 0
-33 -35 61 0
37 40 62 0
-37 40 -62 0
37 -40 -62 0
-37 -40 62 0
-43 44 63 0
43 44 -63 0
-43 -44 -63 0
43 -44 63 0
45 -46 64 0
-45 -46 -64 0
45 46 -64 0
-45 46 64 0
-47 48 65 0
47 48 -65 0
-47 -48 -65 0
47 -48 65 0
51 -52 66 0
-51 -52 -66 0
51 52 -66 0
-51 52 66 0
53 -54 67 0
-53 -54 -67 0
53 54 -67 0
-53 54 67 0
55 -56 68 0
-55 -56 -68 0
55 56 -68 0
-55 56 68 0
57 -58 69 0
-57 -58 -69 0
57 58 -69 0
-57 58 69 0
59 -60 70 0
-59 -60 -70 0
59 60 -70 0
-59 60 70 0
61 -62 71 0
-61 -62 -71 0
61 62 -71 0
-61 62 71 0
63 -64 72 0
-63 -64 -72 0
63 64 -72 0
-63 64 72 0
65 -66 73 0
-65 -66 -73 0
65 66 -73 0
-65 66 73 0
67 -68 74 0
-67 -68 -74 0
67 68 -74 0
-67 68 74 0
69 -70 75 0
-69 -70 -75 0
69 70 -75 0
-69 70 75 0
71 -72 76 0
-71 -72 -76 0
71 72 -76 0
-71 72 76 0
73 -74 77 0
-73 -74 -77 0
73 74 -77 0
-73 74 77 0
75 -76 78 0
-75 -76 -78 0
75 76 -78 0
-75 76 78 0
77 78 0
-77 -78 0
-1 5 79 0
1 5 -79 0
-1 -5 -79 0
1 -5 79 0
6 7 80 0
-6 7 -80 0
6 -7 -80 0
-6 -7 80 0
8 12 81 0
-8 12 -81 0
8 -12 -81 0
-8 -12 81 0
-15 19 82 0
15 19 -82 0
-15 -19 -82 0
15 -19 82 0
20 21 83 0
-20 21 -83 0
20 -21 -83 0
-20 -21 83 0
-23 -24 84 0
23 -24 -84 0
-23 24 -84 0
23 24 84 0
-25 26 85 0
25 26 -85 0
-25 -26 -85 0
25 -26 85 0
-29 -38 86 0
29 -38 -86 0
-29 38 -86 0
29 38 86 0
-39 42 87 0
39 42 -87 0
-39 -42 -87 0
39 -42 87 0
-44 45 88 0
44 45 -88 0
-44 -45 -88 0
44 -45 88 0
78 -79 89 0
-78 -79 -89 0
78 79 -89 0
-78 79 89 0
80 -81 90 0
-80 -81 -90 0
80 81 -90 0
-80 81 90 0
82 -83 91 0
-82 -83 -91 0
82 83 -91 0
-82 83 91 0
84 -85 92 0
-84 -85 -92 0
84 85 -92 0
-84 85 92 0
86 -87 93 0
-86 -87 -93 0
86 87 -93 0
-86 87 93 0
88 -89 94 0
-88 -89 -94 0
88 89 -94 0
-88 89 94 0
90 -91 95 0
-90 -91 -95 0
90 91 -95 0
-90 91 95 0
92 -93 96 0
-92 -93 -96 0
92 93 -96 0
-92 93 96 0
-94 -95 96 0
94 -95 -96 0
-94 95 -96 0
94 95 96 0
-1 -5 97 0
1 -5 -97 0
-1 5 -97 0
1 5 97 0
-7 -9 98 0
7 -9 -98 0
-7 9 -98 0
7 9 98 0
-13 15 99 0
13 15 -99 0
-13 -15 -99 0
13 -15 99 0
-16 -17 100 0
16 -17 -100 0
-16 17 -100 0
16 17 100 0
18 -21 101 0
-18 -21 -101 0
18 21 -101 0
-18 21 101 0
22 26 102 0
-22 26 -102 0
22 -26 -102 0
-22 -26 102 0
-29 32 103 0
29 32 -103 0
-29 -32 -103 0
29 -32 103 0
36 40 104 0
-36 40 -104 0
36 -40 -104 0
-36 -40 104 0
-45 -46 105 0
45 -46 -105 0
-45 46 -105 0
45 46 105 0
-47 48 106 0
47 48 -106 0
-47 -48 -106 0
47 -48 106 0
97 -98 107 0
-97 -98 -107 0
97 98 -107 0
-97 98 107 0
99 -100 108 0
-99 -100 -108 0
99 100 -108 0
-99 100 108 0
101 -102 109 0
-101 -102 -109 0
101 102 -109 0
-101 102 109 0
103 -104 110 0
-103 -104 -110 0
103 104 -110 0
-103 104 110 0
105 -106 111 0
-105 -106 -111 0
105 106 -111 0
-105 106 111 0
107 -108 112 0
-107 -108 -112 0
107 108 -112 0
-107 108 112 0
109 -110 113 0
-109 -110 -113 0
109 110 -113 0
-109 110 113 0
-111 -112 113 0
111 -112 -113 0
-111 112 -113 0
111 112 113 0
2 -6 114 0
-2 -6 -114 0
2 6 -114 0
-2 6 114 0
10 -11 115 0
-10 -11 -115 0
10 11 -115 0
-10 11 115 0
-12 -13 116 0
12 -13 -116 0
-12 13 -116 0
12 13 116 0
17 19 117 0
-17 19 -117 0
17 -19 -117 0
-17 -19 117 0
20 -22 118 0
-20 -22 -118 0
20 22 -118 0
-20 22 118 0
23 -26 119 0
-23 -26 -119 0
23 26 -119 0
-23 26 119 0
-28 31 120 0
28 31 -120 0
-28 -31 -120 0
28 -31 120 0
-33 38 121 0
33 38 -121 0
-33 -38 -121 0
33 -38 121 0
39 41 122 0
-39 41 -122 0
39 -41 -122 0
-39 -41 122 0
43 -44 123 0
-43 -44 -123 0
43 44 -123 0
-43 44 123 0
-46 47 124 0
46 47 -124 0
-46 -47 -124 0
46 -47 124 0
48 50 125 0
-48 50 -125 0
48 -50 -125 0
-48 -50 125 0
114 -115 126 0
-114 -115 -126 0
114 115 -126 0
-114 115 126 0
116 -117 127 0
-116 -117 -127 0
116 117 -127 0
-116 117 127 0
118 -119 128 0
-118 -119 -128 0
118 119 -128 0
-118 119 128 0
120 -121 129 0
-120 -121 -129 0
120 121 -129 0
-120 121 129 0
122 -123 130 0
-122 -123 -130 0
122 123 -130 0
-122 123 130 0
124 -125 131 0
-124 -125 -131 0
124 125 -131 0
-124 125 131 0
126 -127 132 0
-126 -127 -132 0
126 127 -132 0
-126 127 132 0
128 -129 133 0
-128 -129 -133 0
128 129 -133 0
-128 129 133 0
130 -131 134 0
-130 -131 -134 0
130 131 -134 0
-130 131 134 0
-132 -133 134 0
132 -133 -134 0
-132 133 -134 0
132 133 134 0
-1 -2 135 0
1 -2 -135 0
-1 2 -135 0
1 2 135 0
-3 -4 136 0
3 -4 -136 0
-3 4 -136 0
3 4 136 0
-6 8 137 0
6 8 -137 0
-6 -8 -137 0
6 -8 137 0
-10 17 138 0
10 17 -138 0
-10 -17 -138 0
10 -17 138 0
-19 -20 139 0
19 -20 -139 0
-19 20 -139 0
19 20 139 0
21 -22 140 0
-21 -22 -140 0
21 22 -140 0
-21 22 140 0
-23 -25 141 0
23 -25 -141 0
-23 25 -141 0
23 25 141 0
-26 -27 142 0
26 -27 -142 0
-26 27 -142 0
26 27 142 0
-28 31 143 0
28 31 -143 0
-28 -31 -143 0
28 -31 143 0
32 -35 144 0
-32 -35 -144 0
32 35 -144 0
-32 35 144 0
-38 -39 145 0
38 -39 -145 0
-38 39 -145 0
38 39 145 0
-40 -42 146 0
40 -42 -146 0
-40 42 -146 0
40 42 146 0
-43 -45 147 0
43 -45 -147 0
-43 45 -147 0
43 45 147 0
46 49 148 0
-46 49 -148 0
46 -49 -148 0
-46 -49 148 0
134 -135 149 0
-134 -135 -149 0
134 135 -149 0
-134 135 149 0
136 -137 150 0
-136 -137 -150 0
136 137 -150 0
-136 137 150 0
138 -139 151 0
-138 -139 -151 0
138 139 -151 0
-138 139 151 0
140 -141 152 0
-140 -141 -152 0
140 141 -152 0
-140 141 152 0
142 -143 153 0
-142 -143 -153 0
142 143 -153 0
-142 143 153 0
144 -145 154 0
-144 -145 -154 0
144 145 -154 0
-144 145 154 0
146 -147 155 0
-146 -147 -155 0
146 147 -155 0
-146 147 155 0
148 -149 156 0
-148 -149 -156 0
148 149 -156 0
-148 149 156 0
150 -151 157 0
-150 -151 -157 0
150 151 -157 0
-150 151 157 0
152 -153 158 0
-152 -153 -158 0
152 153 -158 0
-152 153 158 0
154 -155 159 0
-154 -155 -159 0
154 155 -159 0
-154 155 159 0
156 -157 160 0
-156 -157 -160 0
156 157 -160 0
-156 157 160 0
158 -159 161 0
-158 -159 -161 0
158 159 -161 0
-158 159 161 0
160 161 0
-160 -161 0
2 -3 162 0
-2 -3 -162 0
2 3 -162 0
-2 3 162 0
4 -5 163 0
-4 -5 -163 0
4 5 -163 0
-4 5 163 0
-6 -7 164 0
6 -7 -164 0
-6 7 -164 0
6 7 164 0
-8 10 165 0
8 10 -165 0
-8 -10 -165 0
8 -10 165 0
-11 -12 166 0
11 -12 -166 0
-11 12 -166 0
11 12 166 0
-14 16 167 0
14 16 -167 0
-14 -16 -167 0
14 -16 167 0
-17 -22 168 0
17 -22 -168 0
-17 22 -168 0
17 22 168 0
26 -27 169 0
-26 -27 -169 0
26 27 -169 0
-26 27 169 0
-29 -30 170 0
29 -30 -170 0
-29 30 -170 0
29 30 170 0
-31 -33 171 0
31 -33 -171 0
-31 33 -171 0
31 33 171 0
-36 -41 172 0
36 -41 -172 0
-36 41 -172 0
36 41 172 0
-42 -43 173 0
42 -43 -173 0
-42 43 -173 0
42 43 173 0
-44 46 174 0
44 46 -174 0
-44 -46 -174 0
44 -46 174 0
47 49 175 0
-47 49 -175 0
47 -49 -175 0
-47 -49 175 0
162 -163 176 0
-162 -163 -176 0
162 163 -176 0
-162 163 176 0
164 -165 177 0
-164 -165 -177 0
164 165 -177 0
-164 165 177 0
166 -167 178 0
-166 -167 -178 0
166 167 -178 0
-166 167 178 0
168 -169 179 0
-168 -169 -179 0
168 169 -179 0
-168 169 179 0
170 -171 180 0
-170 -171 -180 0
170 171 -180 0
-170 171 180 0
172 -173 181 0
-172 -173 -181 0
172 173 -181 0
-172 173 181 0
174 -175 182 0
-174 -175 -182 0
174 175 -182 0
-174 175 182 0
176 -177 183 0
-176 -177 -183 0
176 177 -183 0
-176 177 183 0
178 -179 184 0
-178 -179 -184 0
178 179 -184 0
-178 179 184 0
180 -181 185 0
-180 -181 -185 0
180 181 -185 0
-180 181 185 0
182 -183 186 0
-182 -183 -186 0
182 183 -186 0
-182 183 186 0
184 -185 187 0
-184 -185 -187 0
184 185 -187 0
-184 185 187 0
186 187 0
-186 -187 0
3 -7 188 0
-3 -7 -188 0
3 7 -188 0
-3 7 188 0
9 -15 189 0
-9 -15 -189 0
9 15 -189 0
-9 15 189 0
16 -20 190 0
-16 -20 -190 0
16 20 -190 0
-16 20 190 0
-24 25 191 0
24 25 -191 0
-24 -25 -191 0
24 -25 191 0
-26 34 192 0
26 34 -192 0
-26 -34 -192 0
26 -34 192 0
-35 37 193 0
35 37 -193 0
-35 -37 -193 0
35 -37 193 0
-40 45 194 0
40 45 -194 0
-40 -45 -194 0
40 -45 194 0
187 -188 195 0
-187 -188 -195 0
187 188 -195 0
-187 188 195 0
189 -190 196 0
-189 -190 -196 0
189 190 -196 0
-189 190 196 0
191 -192 197 0
-191 -192 -197 0
191 192 -197 0
-191 192 197 0
193 -194 198 0
-193 -194 -198 0
193 194 -198 0
-193 194 198 0
195 -196 199 0
-195 -196 -199 0
195 196 -199 0
-195 196 199 0
197 -198 200 0
-197 -198 -200 0
197 198 -200 0
-197 198 200 0
199 200 0
-199 -200 0
1 2 201 0
-1 2 -201 0
1 -2 -201 0
-1 -2 201 0
-3 -4 202 0
3 -4 -202 0
-3 4 -202 0
3 4 202 0
-5 -7 203 0
5 -7 -203 0
-5 7 -203 0
5 7 203 0
-9 -11 204 0
9 -11 -204 0
-9 11 -204 0
9 11 204 0
17 -18 205 0
-17 -18 -205 0
17 18 -205 0
-17 18 205 0
-19 -23 206 0
19 -23 -206 0
-19 23 -206 0
19 23 206 0
24 25 207 0
-24 25 -207 0
24 -25 -207 0
-24 -25 207 0
-28 29 208 0
28 29 -208 0
-28 -29 -208 0
28 -29 208 0
-30 -33 209 0
30 -33 -209 0
-30 33 -209 0
30 33 209 0
35 36 210 0
-35 36 -210 0
35 -36 -210 0
-35 -36 210 0
37 -38 211 0
-37 -38 -211 0
37 38 -211 0
-37 38 211 0
44 -47 212 0
-44 -47 -212 0
44 47 -212 0
-44 47 212 0
200 -201 213 0
-200 -201 -213 0
200 201 -213 0
-200 201 213 0
202 -203 214 0
-202 -203 -214 0
202 203 -214 0
-202 203 214 0
204 -205 215 0
-204 -205 -215 0
204 205 -215 0
-204 205 215 0
206 -207 216 0
-206 -207 -216 0
206 207 -216 0
-206 207 216 0
208 -209 217 0
-208 -209 -217 0
208 209 -217 0
-208 209 217 0
210 -211 218 0
-210 -211 -218 0
210 211 -218 0
-210 211 218 0
212 -213 219 0
-212 -213 -219 0
212 213 -219 0
-212 213 219 0
214 -215 220 0
-214 -215 -220 0
214 215 -220 0
-214 215 220 0
216 -217 221 0
-216 -217 -221 0
216 217 -221 0
-216 217 221 0
218 -219 222 0
-218 -219 -222 0
218 219 -222 0
-218 219 222 0
220 -221 223 0
-220 -221 -223 0
220 221 -223 0
-220 221 223 0
222 223 0
-222 -223 0
-1 2 224 0
1 2 -224 0
-1 -2 -224 0
1 -2 224 0
7 8 225 0
-7 8 -225 0
7 -8 -225 0
-7 -8 225 0
11 12 226 0
-11 12 -226 0
11 -12 -226 0
-11 -12 226 0
13 -15 227 0
-13 -15 -227 0
13 15 -227 0
-13 15 227 0
-18 -19 228 0
18 -19 -228 0
-18 19 -228 0
18 19 228 0
-23 24 229 0
23 24 -229 0
-23 -24 -229 0
23 -24 229 0
-25 -26 230 0
25 -26 -230 0
-25 26 -230 0
25 26 230 0
27 -28 231 0
-27 -28 -231 0
27 28 -231 0
-27 28 231 0
32 -37 232 0
-32 -37 -232 0
32 37 -232 0
-32 37 232 0
38 -39 233 0
-38 -39 -233 0
38 39 -233 0
-38 39 233 0
-40 41 234 0
40 41 -234 0
-40 -41 -234 0
40 -41 234 0
-42 -43 235 0
42 -43 -235 0
-42 43 -235 0
42 43 235 0
-44 46 236 0
44 46 -236 0
-44 -46 -236 0
44 -46 236 0
-48 -50 237 0
48 -50 -237 0
-48 50 -237 0
48 50 237 0
224 -225 238 0
-224 -225 -238 0
224 225 -238 0
-224 225 238 0
226 -227 239 0
-226 -227 -239 0
226 227 -239 0
-226 227 239 0
228 -229 240 0
-228 -229 -240 0
228 229 -240 0
-228 229 240 0
230 -231 241 0
-230 -231 -241 0
230 231 -241 0
-230 231 241 0
232 -233 242 0
-232 -233 -242 0
232 233 -242 0
-232 233 242 0
234 -235 243 0
-234 -235 -243 0
234 235 -243 0
-234 235 243 0
236 -237 244 0
-236 -237 -244 0
236 237 -244 0
-236 237 244 0
238 -239 245 0
-238 -239 -245 0
238 239 -245 0
-238 239 245 0
240 -241 246 0
-240 -241 -246 0
240 241 -246 0
-240 241 246 0
242 -243 247 0
-242 -243 -247 0
242 243 -247 0
-242 243 247 0
244 -245 248 0
-244 -245 -248 0
244 245 -248 0
-244 245 248 0
246 -247 249 0
-246 -247 -249 0
246 247 -249 0
-246 247 249 0
248 249 0
-248 -249 0
-1 4 250 0
1 4 -250 0
-1 -4 -250 0
1 -4 250 0
5 -6 251 0
-5 -6 -251 0
5 6 -251 0
-5 6 251 0
7 10 252 0
-7 10 -252 0
7 -10 -252 0
-7 -10 252 0
12 -13 253 0
-12 -13 -253 0
12 13 -253 0
-12 13 253 0
-15 17 254 0
15 17 -254 0
-15 -17 -254 0
15 -17 254 0
18 21 255 0
-18 21 -255 0
18 -21 -255 0
-18 -21 255 0
23 27 256 0
-23 27 -256 0
23 -27 -256 0
-23 -27 256 0
29 -31 257 0
-29 -31 -257 0
29 31 -257 0
-29 31 257 0
-35 -37 258 0
35 -37 -258 0
-35 37 -258 0
35 37 258 0
-38 39 259 0
38 39 -259 0
-38 -39 -259 0
38 -39 259 0
43 -44 260 0
-43 -44 -260 0
43 44 -260 0
-43 44 260 0
-45 46 261 0
45 46 -261 0
-45 -46 -261 0
45 -46 261 0
250 -251 262 0
-250 -251 -262 0
250 251 -262 0
-250 251 262 0
252 -253 263 0
-252 -253 -263 0
252 253 -263 0
-252 253 263 0
254 -255 264 0
-254 -255 -264 0
254 255 -264 0
-254 255 264 0
256 -257 265 0
-256 -257 -265 0
256 257 -265 0
-256 257 265 0
258 -259 266 0
-258 -259 -266 0
258 259 -266 0
-258 259 266 0
260 -261 267 0
-260 -261 -267 0
260 261 -267 0
-260 261 267 0
262 -263 268 0
-262 -263 -268 0
262 263 -268 0
-262 263 268 0
264 -265 269 0
-264 -265 -269 0
264 265 -269 0
-264 265 269 0
266 -267 270 0
-266 -267 -270 0
266 267 -270 0
-266 267 270 0
-268 -269 270 0
268 -269 -270 0
-268 269 -270 0
268 269 270 0
